# wrinkle of a bilyaer structure in lammps
# Created by Teng Zhang at 12/7/2016, modified by Teng Zhang at 5/6/2023

units		metal
atom_style	full

# create box

dimension       2	
boundary	p	p	p

processors * * 1
# ----------------------- ATOM DEFINITION ----------------------------
read_data        lattice-indent-improper-a1-R200-d6-Lx1000-Ly800-bond.lam 
# ------------------------ FORCE FIELDS ------------------------------

comm_style tiled

atom_modify sort 10 2.0
comm_modify mode single cutoff 3.0 vel yes

pair_style	lj/cut 6.0

pair_coeff 1 1 0.01 0.1 0.5 
pair_coeff 2 2 0.01 0.1 0.5 
pair_coeff 1 2 0.5 1.5 

special_bonds lj/coul 0 0 1

bond_style    harmonic
bond_coeff	1 0.333333333333333 0.0
bond_coeff	2 0.333333333333333  0.0
bond_coeff	3 0.166666666666667  0.0 

improper_style    neohookean
improper_coeff	1 2.0 40.0 1.0
# ----------------------- COMPUTATION FOR OUTPUT ----------------------------
compute 	patompe all pe/atom 
compute		patoms all stress/atom NULL
compute		tstr all reduce ave c_patoms[1] c_patoms[2] c_patoms[3]
compute         xyzcoor all property/atom x y z 
compute 	xmax all reduce max c_xyzcoor[1]
compute 	xmin all reduce min c_xyzcoor[1] 
compute         ymax all reduce max c_xyzcoor[2]  
compute         ymin all reduce min c_xyzcoor[2]  
#----------------------- Define group ------------------------------

region bot block INF INF INF -399.5 INF INF units box
group bot region bot 

region left block INF -499.5 INF INF INF INF units box
group left region left

region right block 499.5 INF INF INF INF INF units box
group right region right

region substrate2 block INF INF INF 200.0 INF INF units box
group substrate2 region substrate2
 
group substrate type 1
group indent type 2

#----------------------static balance---------------------

balance 1.05 rcb


###############################################
# Indent
###############################################

label loopa 
variable a loop 250 
displace_atoms indent move 0 -0.05 0 units box

###############################################
# Store final cell length for strain calculations
variable tmp equal "ly"
variable L0 equal ${tmp}
print "Initial Length, L0: ${L0}"
######################################


## Energy minimization

min_style fire

fix 	       3 bot setforce 0.0 0.0 NULL
fix            4 left setforce 0.0 NULL NULL
fix	       	   5 right setforce 0.0 NULL NULL
fix            6 indent setforce 0.0 0.0 NULL
fix 	       7 all enforce2d

minimize 1.0e-7 1.0e-9 1000 10000

unfix 3
unfix 4
unfix 5
unfix 6
unfix 7


# DEFORMATION
reset_timestep 1
timestep	0.0005

fix	       1 all nve
fix	       2 all langevin 0.001 0.001 0.1 904297
fix 	       3 bot setforce 0.0 0.0 NULL
fix            4 left setforce 0.0 NULL NULL
fix	       	   5 right setforce 0.0 NULL NULL
fix            6 indent setforce 0.0 0.0 NULL
fix 	       7 all enforce2d


#----------------------- Output ------------------------------
# Output to file
variable LLy equal "c_ymax - c_ymin"
variable LLx equal "c_xmax - c_xmin"
variable strain equal "(ly - v_L0)/v_L0"
variable dv equal 1.0
variable grah equal 1.0
# In metal unit, the pressure unit is bar (10^5)
# In the current unit system, the shear modulus is 2, which corresponds to 3.2x10^11
variable myenergy atom "c_patompe"
variable mystress1 atom "c_patoms[1]/(1000000.0*3.2*v_dv)"
variable mystress2 atom "c_patoms[2]/(1000000.0*3.2*v_dv)"
variable mystress3 atom "c_patoms[3]/(1000000.0*3.2*v_dv)"
variable mystress4 atom "c_patoms[4]/(1000000.0*3.2*v_dv)"
variable mystress5 atom "c_patoms[5]/(1000000.0*3.2*v_dv)"
variable mystress6 atom "c_patoms[6]/(1000000.0*3.2*v_dv)"

variable p1 equal "f_6[2]"
variable p2 equal "-pxx*lx*ly/(1000000.0*3.2*v_LLx*v_LLy*v_grah)"
variable p3 equal "-pyy*lx*ly/(1000000.0*3.2*v_LLx*v_LLy*v_grah)"
variable p4 equal "-pzz*lx*ly/(1000000.0*3.2*v_LLx*v_LLy*v_grah)"
variable pa1 equal "c_tstr[1]/(1000000.0*3.2*v_dv)"
variable pa2 equal "c_tstr[2]/(1000000.0*3.2*v_dv)"
variable pa3 equal "c_tstr[3]/(1000000.0*3.2*v_dv)"

fix extra1 all ave/time 1 11 505 f_6[2] file ./txt/indent-loading-$a.txt

dump           1 all custom 20000 ./fxyz/test_bond_loading_$a.xyz type x y z v_myenergy v_mystress1 v_mystress2 v_mystress3 v_mystress4 v_mystress5 v_mystress6 id

# Display thermo
thermo 	1000
thermo_style	custom step v_strain temp v_p2 v_p3 v_p4 v_pa1 v_pa2 v_pa3 ke pe f_6[2] press 
thermo_modify   lost ignore flush yes

run		20000

#write_data ./data/loading_data.$a

unfix 1
unfix 2
unfix 3
unfix 4
unfix 5
unfix 6
unfix 7
unfix extra1
undump 1

next a

jump SELF loopa 

# unloading

label loopb

variable b loop 450 

displace_atoms indent move 0 0.05 0 units box


###############################################
# Store final cell length for strain calculations
variable tmp equal "ly"
variable L0 equal ${tmp}
print "Initial Length, L0: ${L0}"
######################################


## Energy minimization

min_style fire

fix 	       3 bot setforce 0.0 0.0 NULL
fix            4 left setforce 0.0 NULL NULL
fix	       	   5 right setforce 0.0 NULL NULL
fix            6 indent setforce 0.0 0.0 NULL
fix 	       7 all enforce2d

minimize 1.0e-7 1.0e-9 1000 10000

unfix 3
unfix 4
unfix 5
unfix 6
unfix 7


# DEFORMATION
reset_timestep 1
timestep	0.0005

# velocity indent set NULL 0.005 NULL sum no units box

fix	       1 all nve
fix	       2 all langevin 0.001 0.001 0.1 904297
fix 	   3 bot setforce 0.0 0.0 NULL
fix        4 left setforce 0.0 NULL NULL
fix	       5 right setforce 0.0 NULL NULL
fix        6 indent setforce 0.0 0.0 NULL
fix 	   7 all enforce2d

#----------------------- Output ------------------------------
# Output to file
variable LLy equal "c_ymax - c_ymin"
variable LLx equal "c_xmax - c_xmin"
variable strain equal "(ly - v_L0)/v_L0"
variable dv equal 1.0
variable grah equal 1.0

variable myenergy atom "c_patompe"
variable mystress1 atom "c_patoms[1]/(1000000.0*3.2*v_dv)"
variable mystress2 atom "c_patoms[2]/(1000000.0*3.2*v_dv)"
variable mystress3 atom "c_patoms[3]/(1000000.0*3.2*v_dv)"
variable mystress4 atom "c_patoms[4]/(1000000.0*3.2*v_dv)"
variable mystress5 atom "c_patoms[5]/(1000000.0*3.2*v_dv)"
variable mystress6 atom "c_patoms[6]/(1000000.0*3.2*v_dv)"

variable p1 equal "f_6[2]"
variable p2 equal "-pxx*lx*ly/(1000000.0*3.2*v_LLx*v_LLy*v_grah)"
variable p3 equal "-pyy*lx*ly/(1000000.0*3.2*v_LLx*v_LLy*v_grah)"
variable p4 equal "-pzz*lx*ly/(1000000.0*3.2*v_LLx*v_LLy*v_grah)"
variable pa1 equal "c_tstr[1]/(1000000.0*3.2*v_dv)"
variable pa2 equal "c_tstr[2]/(1000000.0*3.2*v_dv)"
variable pa3 equal "c_tstr[3]/(1000000.0*3.2*v_dv)"

fix extra1 all ave/time 1 11 505 f_6[2] file ./txt/indent-unloading-$b.txt

dump           1 all custom 20000 ./fxyz/test_bond_unloading_$b.xyz type x y z v_myenergy v_mystress1 v_mystress2 v_mystress3 v_mystress4 v_mystress5 v_mystress6 id

# Display thermo
thermo 	1000
thermo_style	custom step v_strain temp v_p2 v_p3 v_p4 v_pa1 v_pa2 v_pa3 ke pe f_6[2] press 
thermo_modify   lost ignore flush yes

run		20000

# write_data ./data/unloading_data.$b

unfix 1
unfix 2
unfix 3
unfix 4
unfix 5
unfix 6
unfix 7
unfix extra1
undump 1 

next b 
jump SELF loopb
